Max_Width = 5;
Max_Height = 5;
Height = 5;

Width = 5;

grid =  [| -1, -1, -1, -1, -1
         | -1, -1, -1, -1, -1
         |  1,  1,  1,  1,  1
         |  0,  0,  0,  0,  0
         |  0,  0,  0,  0,  0|]